(set-option :produce-models true)
(set-logic QF_LRA)
(set-info :notes | Strip-packing problem.|)
(declare-fun x0 () Real)
(declare-fun y0 () Real)
(declare-fun x1 () Real)
(declare-fun y1 () Real)
(declare-fun x2 () Real)
(declare-fun y2 () Real)
(declare-fun x3 () Real)
(declare-fun y3 () Real)
(declare-fun x4 () Real)
(declare-fun y4 () Real)
(declare-fun x5 () Real)
(declare-fun y5 () Real)
(declare-fun x6 () Real)
(declare-fun y6 () Real)
(declare-fun x7 () Real)
(declare-fun y7 () Real)
(declare-fun x8 () Real)
(declare-fun y8 () Real)
(declare-fun x9 () Real)
(declare-fun y9 () Real)
(declare-fun x10 () Real)
(declare-fun y10 () Real)
(declare-fun x11 () Real)
(declare-fun y11 () Real)
(declare-fun x12 () Real)
(declare-fun y12 () Real)
(declare-fun x13 () Real)
(declare-fun y13 () Real)
(declare-fun x14 () Real)
(declare-fun y14 () Real)
(declare-fun z () Real)
(declare-fun c () Real)
(assert (and (= c z) (and (>= x0 0) 
(and (>= y0 0) 
(and (>= x1 0) 
(and (>= y1 0) 
(and (>= x2 0) 
(and (>= y2 0) 
(and (>= x3 0) 
(and (>= y3 0) 
(and (>= x4 0) 
(and (>= y4 0) 
(and (>= x5 0) 
(and (>= y5 0) 
(and (>= x6 0) 
(and (>= y6 0) 
(and (>= x7 0) 
(and (>= y7 0) 
(and (>= x8 0) 
(and (>= y8 0) 
(and (>= x9 0) 
(and (>= y9 0) 
(and (>= x10 0) 
(and (>= y10 0) 
(and (>= x11 0) 
(and (>= y11 0) 
(and (>= x12 0) 
(and (>= y12 0) 
(and (>= x13 0) 
(and (>= y13 0) 
(and (>= x14 0) 
(and (>= y14 0) 
(and (>= z 0) 
(and (>= c 0) 
(and (<= (+ x0 0.6240176806) z) 
(and (<= 0.9873640808 y0) 
(and (<= y0 1.9364916731) 
(and (<= x0 (- 4.6790769703 0.6240176806)) 
(and (>= x0 0) 
(and (<= (+ x1 0.0863570274) z) 
(and (<= 0.8625219804 y1) 
(and (<= y1 1.9364916731) 
(and (<= x1 (- 4.6790769703 0.0863570274)) 
(and (>= x1 0) 
(and (<= (+ x2 0.7341954187) z) 
(and (<= 0.7707242762 y2) 
(and (<= y2 1.9364916731) 
(and (<= x2 (- 4.6790769703 0.7341954187)) 
(and (>= x2 0) 
(and (<= (+ x3 0.0692893087) z) 
(and (<= 0.7268499766 y3) 
(and (<= y3 1.9364916731) 
(and (<= x3 (- 4.6790769703 0.0692893087)) 
(and (>= x3 0) 
(and (<= (+ x4 0.7388461311) z) 
(and (<= 0.7219543458 y4) 
(and (<= y4 1.9364916731) 
(and (<= x4 (- 4.6790769703 0.7388461311)) 
(and (>= x4 0) 
(and (<= (+ x5 0.0410195851) z) 
(and (<= 0.6196102484 y5) 
(and (<= y5 1.9364916731) 
(and (<= x5 (- 4.6790769703 0.0410195851)) 
(and (>= x5 0) 
(and (<= (+ x6 0.4439298637) z) 
(and (<= 0.5169775122 y6) 
(and (<= y6 1.9364916731) 
(and (<= x6 (- 4.6790769703 0.4439298637)) 
(and (>= x6 0) 
(and (<= (+ x7 0.4578834225) z) 
(and (<= 0.4842458644 y7) 
(and (<= y7 1.9364916731) 
(and (<= x7 (- 4.6790769703 0.4578834225)) 
(and (>= x7 0) 
(and (<= (+ x8 0.5534995919) z) 
(and (<= 0.4226127808 y8) 
(and (<= y8 1.9364916731) 
(and (<= x8 (- 4.6790769703 0.5534995919)) 
(and (>= x8 0) 
(and (<= (+ x9 0.4511011209) z) 
(and (<= 0.4023114436 y9) 
(and (<= y9 1.9364916731) 
(and (<= x9 (- 4.6790769703 0.4511011209)) 
(and (>= x9 0) 
(and (<= (+ x10 0.1214431211) z) 
(and (<= 0.2762609854 y10) 
(and (<= y10 1.9364916731) 
(and (<= x10 (- 4.6790769703 0.1214431211)) 
(and (>= x10 0) 
(and (<= (+ x11 0.5622384281) z) 
(and (<= 0.1023775932 y11) 
(and (<= y11 1.9364916731) 
(and (<= x11 (- 4.6790769703 0.5622384281)) 
(and (>= x11 0) 
(and (<= (+ x12 0.6179029355) z) 
(and (<= 0.0880952405 y12) 
(and (<= y12 1.9364916731) 
(and (<= x12 (- 4.6790769703 0.6179029355)) 
(and (>= x12 0) 
(and (<= (+ x13 0.9439929538) z) 
(and (<= 0.0102455035 y13) 
(and (<= y13 1.9364916731) 
(and (<= x13 (- 4.6790769703 0.9439929538)) 
(and (>= x13 0) 
(and (<= (+ x14 0.8575855039) z) 
(and (<= 0.0003321644 y14) 
(and (<= y14 1.9364916731) 
(and (<= x14 (- 4.6790769703 0.8575855039)) 
(and (>= x14 0) 
(and (<= c 4.6790769703) 
(and (or (<= (+ x0 0.6240176806) x1) (or (<= (+ x1 0.0863570274) x0) (or (>= (- y0 0.9873640808) y1) (or (>= (- y1 0.8625219804) y0))))) 
(and (or (<= (+ x0 0.6240176806) x2) (or (<= (+ x2 0.7341954187) x0) (or (>= (- y0 0.9873640808) y2) (or (>= (- y2 0.7707242762) y0))))) 
(and (or (<= (+ x0 0.6240176806) x3) (or (<= (+ x3 0.0692893087) x0) (or (>= (- y0 0.9873640808) y3) (or (>= (- y3 0.7268499766) y0))))) 
(and (or (<= (+ x0 0.6240176806) x4) (or (<= (+ x4 0.7388461311) x0) (or (>= (- y0 0.9873640808) y4) (or (>= (- y4 0.7219543458) y0))))) 
(and (or (<= (+ x0 0.6240176806) x5) (or (<= (+ x5 0.0410195851) x0) (or (>= (- y0 0.9873640808) y5) (or (>= (- y5 0.6196102484) y0))))) 
(and (or (<= (+ x0 0.6240176806) x6) (or (<= (+ x6 0.4439298637) x0) (or (>= (- y0 0.9873640808) y6) (or (>= (- y6 0.5169775122) y0))))) 
(and (or (<= (+ x0 0.6240176806) x7) (or (<= (+ x7 0.4578834225) x0) (or (>= (- y0 0.9873640808) y7) (or (>= (- y7 0.4842458644) y0))))) 
(and (or (<= (+ x0 0.6240176806) x8) (or (<= (+ x8 0.5534995919) x0) (or (>= (- y0 0.9873640808) y8) (or (>= (- y8 0.4226127808) y0))))) 
(and (or (<= (+ x0 0.6240176806) x9) (or (<= (+ x9 0.4511011209) x0) (or (>= (- y0 0.9873640808) y9) (or (>= (- y9 0.4023114436) y0))))) 
(and (or (<= (+ x0 0.6240176806) x10) (or (<= (+ x10 0.1214431211) x0) (or (>= (- y0 0.9873640808) y10) (or (>= (- y10 0.2762609854) y0))))) 
(and (or (<= (+ x0 0.6240176806) x11) (or (<= (+ x11 0.5622384281) x0) (or (>= (- y0 0.9873640808) y11) (or (>= (- y11 0.1023775932) y0))))) 
(and (or (<= (+ x0 0.6240176806) x12) (or (<= (+ x12 0.6179029355) x0) (or (>= (- y0 0.9873640808) y12) (or (>= (- y12 0.0880952405) y0))))) 
(and (or (<= (+ x0 0.6240176806) x13) (or (<= (+ x13 0.9439929538) x0) (or (>= (- y0 0.9873640808) y13) (or (>= (- y13 0.0102455035) y0))))) 
(and (or (<= (+ x0 0.6240176806) x14) (or (<= (+ x14 0.8575855039) x0) (or (>= (- y0 0.9873640808) y14) (or (>= (- y14 0.0003321644) y0))))) 
(and (or (<= (+ x1 0.0863570274) x2) (or (<= (+ x2 0.7341954187) x1) (or (>= (- y1 0.8625219804) y2) (or (>= (- y2 0.7707242762) y1))))) 
(and (or (<= (+ x1 0.0863570274) x3) (or (<= (+ x3 0.0692893087) x1) (or (>= (- y1 0.8625219804) y3) (or (>= (- y3 0.7268499766) y1))))) 
(and (or (<= (+ x1 0.0863570274) x4) (or (<= (+ x4 0.7388461311) x1) (or (>= (- y1 0.8625219804) y4) (or (>= (- y4 0.7219543458) y1))))) 
(and (or (<= (+ x1 0.0863570274) x5) (or (<= (+ x5 0.0410195851) x1) (or (>= (- y1 0.8625219804) y5) (or (>= (- y5 0.6196102484) y1))))) 
(and (or (<= (+ x1 0.0863570274) x6) (or (<= (+ x6 0.4439298637) x1) (or (>= (- y1 0.8625219804) y6) (or (>= (- y6 0.5169775122) y1))))) 
(and (or (<= (+ x1 0.0863570274) x7) (or (<= (+ x7 0.4578834225) x1) (or (>= (- y1 0.8625219804) y7) (or (>= (- y7 0.4842458644) y1))))) 
(and (or (<= (+ x1 0.0863570274) x8) (or (<= (+ x8 0.5534995919) x1) (or (>= (- y1 0.8625219804) y8) (or (>= (- y8 0.4226127808) y1))))) 
(and (or (<= (+ x1 0.0863570274) x9) (or (<= (+ x9 0.4511011209) x1) (or (>= (- y1 0.8625219804) y9) (or (>= (- y9 0.4023114436) y1))))) 
(and (or (<= (+ x1 0.0863570274) x10) (or (<= (+ x10 0.1214431211) x1) (or (>= (- y1 0.8625219804) y10) (or (>= (- y10 0.2762609854) y1))))) 
(and (or (<= (+ x1 0.0863570274) x11) (or (<= (+ x11 0.5622384281) x1) (or (>= (- y1 0.8625219804) y11) (or (>= (- y11 0.1023775932) y1))))) 
(and (or (<= (+ x1 0.0863570274) x12) (or (<= (+ x12 0.6179029355) x1) (or (>= (- y1 0.8625219804) y12) (or (>= (- y12 0.0880952405) y1))))) 
(and (or (<= (+ x1 0.0863570274) x13) (or (<= (+ x13 0.9439929538) x1) (or (>= (- y1 0.8625219804) y13) (or (>= (- y13 0.0102455035) y1))))) 
(and (or (<= (+ x1 0.0863570274) x14) (or (<= (+ x14 0.8575855039) x1) (or (>= (- y1 0.8625219804) y14) (or (>= (- y14 0.0003321644) y1))))) 
(and (or (<= (+ x2 0.7341954187) x3) (or (<= (+ x3 0.0692893087) x2) (or (>= (- y2 0.7707242762) y3) (or (>= (- y3 0.7268499766) y2))))) 
(and (or (<= (+ x2 0.7341954187) x4) (or (<= (+ x4 0.7388461311) x2) (or (>= (- y2 0.7707242762) y4) (or (>= (- y4 0.7219543458) y2))))) 
(and (or (<= (+ x2 0.7341954187) x5) (or (<= (+ x5 0.0410195851) x2) (or (>= (- y2 0.7707242762) y5) (or (>= (- y5 0.6196102484) y2))))) 
(and (or (<= (+ x2 0.7341954187) x6) (or (<= (+ x6 0.4439298637) x2) (or (>= (- y2 0.7707242762) y6) (or (>= (- y6 0.5169775122) y2))))) 
(and (or (<= (+ x2 0.7341954187) x7) (or (<= (+ x7 0.4578834225) x2) (or (>= (- y2 0.7707242762) y7) (or (>= (- y7 0.4842458644) y2))))) 
(and (or (<= (+ x2 0.7341954187) x8) (or (<= (+ x8 0.5534995919) x2) (or (>= (- y2 0.7707242762) y8) (or (>= (- y8 0.4226127808) y2))))) 
(and (or (<= (+ x2 0.7341954187) x9) (or (<= (+ x9 0.4511011209) x2) (or (>= (- y2 0.7707242762) y9) (or (>= (- y9 0.4023114436) y2))))) 
(and (or (<= (+ x2 0.7341954187) x10) (or (<= (+ x10 0.1214431211) x2) (or (>= (- y2 0.7707242762) y10) (or (>= (- y10 0.2762609854) y2))))) 
(and (or (<= (+ x2 0.7341954187) x11) (or (<= (+ x11 0.5622384281) x2) (or (>= (- y2 0.7707242762) y11) (or (>= (- y11 0.1023775932) y2))))) 
(and (or (<= (+ x2 0.7341954187) x12) (or (<= (+ x12 0.6179029355) x2) (or (>= (- y2 0.7707242762) y12) (or (>= (- y12 0.0880952405) y2))))) 
(and (or (<= (+ x2 0.7341954187) x13) (or (<= (+ x13 0.9439929538) x2) (or (>= (- y2 0.7707242762) y13) (or (>= (- y13 0.0102455035) y2))))) 
(and (or (<= (+ x2 0.7341954187) x14) (or (<= (+ x14 0.8575855039) x2) (or (>= (- y2 0.7707242762) y14) (or (>= (- y14 0.0003321644) y2))))) 
(and (or (<= (+ x3 0.0692893087) x4) (or (<= (+ x4 0.7388461311) x3) (or (>= (- y3 0.7268499766) y4) (or (>= (- y4 0.7219543458) y3))))) 
(and (or (<= (+ x3 0.0692893087) x5) (or (<= (+ x5 0.0410195851) x3) (or (>= (- y3 0.7268499766) y5) (or (>= (- y5 0.6196102484) y3))))) 
(and (or (<= (+ x3 0.0692893087) x6) (or (<= (+ x6 0.4439298637) x3) (or (>= (- y3 0.7268499766) y6) (or (>= (- y6 0.5169775122) y3))))) 
(and (or (<= (+ x3 0.0692893087) x7) (or (<= (+ x7 0.4578834225) x3) (or (>= (- y3 0.7268499766) y7) (or (>= (- y7 0.4842458644) y3))))) 
(and (or (<= (+ x3 0.0692893087) x8) (or (<= (+ x8 0.5534995919) x3) (or (>= (- y3 0.7268499766) y8) (or (>= (- y8 0.4226127808) y3))))) 
(and (or (<= (+ x3 0.0692893087) x9) (or (<= (+ x9 0.4511011209) x3) (or (>= (- y3 0.7268499766) y9) (or (>= (- y9 0.4023114436) y3))))) 
(and (or (<= (+ x3 0.0692893087) x10) (or (<= (+ x10 0.1214431211) x3) (or (>= (- y3 0.7268499766) y10) (or (>= (- y10 0.2762609854) y3))))) 
(and (or (<= (+ x3 0.0692893087) x11) (or (<= (+ x11 0.5622384281) x3) (or (>= (- y3 0.7268499766) y11) (or (>= (- y11 0.1023775932) y3))))) 
(and (or (<= (+ x3 0.0692893087) x12) (or (<= (+ x12 0.6179029355) x3) (or (>= (- y3 0.7268499766) y12) (or (>= (- y12 0.0880952405) y3))))) 
(and (or (<= (+ x3 0.0692893087) x13) (or (<= (+ x13 0.9439929538) x3) (or (>= (- y3 0.7268499766) y13) (or (>= (- y13 0.0102455035) y3))))) 
(and (or (<= (+ x3 0.0692893087) x14) (or (<= (+ x14 0.8575855039) x3) (or (>= (- y3 0.7268499766) y14) (or (>= (- y14 0.0003321644) y3))))) 
(and (or (<= (+ x4 0.7388461311) x5) (or (<= (+ x5 0.0410195851) x4) (or (>= (- y4 0.7219543458) y5) (or (>= (- y5 0.6196102484) y4))))) 
(and (or (<= (+ x4 0.7388461311) x6) (or (<= (+ x6 0.4439298637) x4) (or (>= (- y4 0.7219543458) y6) (or (>= (- y6 0.5169775122) y4))))) 
(and (or (<= (+ x4 0.7388461311) x7) (or (<= (+ x7 0.4578834225) x4) (or (>= (- y4 0.7219543458) y7) (or (>= (- y7 0.4842458644) y4))))) 
(and (or (<= (+ x4 0.7388461311) x8) (or (<= (+ x8 0.5534995919) x4) (or (>= (- y4 0.7219543458) y8) (or (>= (- y8 0.4226127808) y4))))) 
(and (or (<= (+ x4 0.7388461311) x9) (or (<= (+ x9 0.4511011209) x4) (or (>= (- y4 0.7219543458) y9) (or (>= (- y9 0.4023114436) y4))))) 
(and (or (<= (+ x4 0.7388461311) x10) (or (<= (+ x10 0.1214431211) x4) (or (>= (- y4 0.7219543458) y10) (or (>= (- y10 0.2762609854) y4))))) 
(and (or (<= (+ x4 0.7388461311) x11) (or (<= (+ x11 0.5622384281) x4) (or (>= (- y4 0.7219543458) y11) (or (>= (- y11 0.1023775932) y4))))) 
(and (or (<= (+ x4 0.7388461311) x12) (or (<= (+ x12 0.6179029355) x4) (or (>= (- y4 0.7219543458) y12) (or (>= (- y12 0.0880952405) y4))))) 
(and (or (<= (+ x4 0.7388461311) x13) (or (<= (+ x13 0.9439929538) x4) (or (>= (- y4 0.7219543458) y13) (or (>= (- y13 0.0102455035) y4))))) 
(and (or (<= (+ x4 0.7388461311) x14) (or (<= (+ x14 0.8575855039) x4) (or (>= (- y4 0.7219543458) y14) (or (>= (- y14 0.0003321644) y4))))) 
(and (or (<= (+ x5 0.0410195851) x6) (or (<= (+ x6 0.4439298637) x5) (or (>= (- y5 0.6196102484) y6) (or (>= (- y6 0.5169775122) y5))))) 
(and (or (<= (+ x5 0.0410195851) x7) (or (<= (+ x7 0.4578834225) x5) (or (>= (- y5 0.6196102484) y7) (or (>= (- y7 0.4842458644) y5))))) 
(and (or (<= (+ x5 0.0410195851) x8) (or (<= (+ x8 0.5534995919) x5) (or (>= (- y5 0.6196102484) y8) (or (>= (- y8 0.4226127808) y5))))) 
(and (or (<= (+ x5 0.0410195851) x9) (or (<= (+ x9 0.4511011209) x5) (or (>= (- y5 0.6196102484) y9) (or (>= (- y9 0.4023114436) y5))))) 
(and (or (<= (+ x5 0.0410195851) x10) (or (<= (+ x10 0.1214431211) x5) (or (>= (- y5 0.6196102484) y10) (or (>= (- y10 0.2762609854) y5))))) 
(and (or (<= (+ x5 0.0410195851) x11) (or (<= (+ x11 0.5622384281) x5) (or (>= (- y5 0.6196102484) y11) (or (>= (- y11 0.1023775932) y5))))) 
(and (or (<= (+ x5 0.0410195851) x12) (or (<= (+ x12 0.6179029355) x5) (or (>= (- y5 0.6196102484) y12) (or (>= (- y12 0.0880952405) y5))))) 
(and (or (<= (+ x5 0.0410195851) x13) (or (<= (+ x13 0.9439929538) x5) (or (>= (- y5 0.6196102484) y13) (or (>= (- y13 0.0102455035) y5))))) 
(and (or (<= (+ x5 0.0410195851) x14) (or (<= (+ x14 0.8575855039) x5) (or (>= (- y5 0.6196102484) y14) (or (>= (- y14 0.0003321644) y5))))) 
(and (or (<= (+ x6 0.4439298637) x7) (or (<= (+ x7 0.4578834225) x6) (or (>= (- y6 0.5169775122) y7) (or (>= (- y7 0.4842458644) y6))))) 
(and (or (<= (+ x6 0.4439298637) x8) (or (<= (+ x8 0.5534995919) x6) (or (>= (- y6 0.5169775122) y8) (or (>= (- y8 0.4226127808) y6))))) 
(and (or (<= (+ x6 0.4439298637) x9) (or (<= (+ x9 0.4511011209) x6) (or (>= (- y6 0.5169775122) y9) (or (>= (- y9 0.4023114436) y6))))) 
(and (or (<= (+ x6 0.4439298637) x10) (or (<= (+ x10 0.1214431211) x6) (or (>= (- y6 0.5169775122) y10) (or (>= (- y10 0.2762609854) y6))))) 
(and (or (<= (+ x6 0.4439298637) x11) (or (<= (+ x11 0.5622384281) x6) (or (>= (- y6 0.5169775122) y11) (or (>= (- y11 0.1023775932) y6))))) 
(and (or (<= (+ x6 0.4439298637) x12) (or (<= (+ x12 0.6179029355) x6) (or (>= (- y6 0.5169775122) y12) (or (>= (- y12 0.0880952405) y6))))) 
(and (or (<= (+ x6 0.4439298637) x13) (or (<= (+ x13 0.9439929538) x6) (or (>= (- y6 0.5169775122) y13) (or (>= (- y13 0.0102455035) y6))))) 
(and (or (<= (+ x6 0.4439298637) x14) (or (<= (+ x14 0.8575855039) x6) (or (>= (- y6 0.5169775122) y14) (or (>= (- y14 0.0003321644) y6))))) 
(and (or (<= (+ x7 0.4578834225) x8) (or (<= (+ x8 0.5534995919) x7) (or (>= (- y7 0.4842458644) y8) (or (>= (- y8 0.4226127808) y7))))) 
(and (or (<= (+ x7 0.4578834225) x9) (or (<= (+ x9 0.4511011209) x7) (or (>= (- y7 0.4842458644) y9) (or (>= (- y9 0.4023114436) y7))))) 
(and (or (<= (+ x7 0.4578834225) x10) (or (<= (+ x10 0.1214431211) x7) (or (>= (- y7 0.4842458644) y10) (or (>= (- y10 0.2762609854) y7))))) 
(and (or (<= (+ x7 0.4578834225) x11) (or (<= (+ x11 0.5622384281) x7) (or (>= (- y7 0.4842458644) y11) (or (>= (- y11 0.1023775932) y7))))) 
(and (or (<= (+ x7 0.4578834225) x12) (or (<= (+ x12 0.6179029355) x7) (or (>= (- y7 0.4842458644) y12) (or (>= (- y12 0.0880952405) y7))))) 
(and (or (<= (+ x7 0.4578834225) x13) (or (<= (+ x13 0.9439929538) x7) (or (>= (- y7 0.4842458644) y13) (or (>= (- y13 0.0102455035) y7))))) 
(and (or (<= (+ x7 0.4578834225) x14) (or (<= (+ x14 0.8575855039) x7) (or (>= (- y7 0.4842458644) y14) (or (>= (- y14 0.0003321644) y7))))) 
(and (or (<= (+ x8 0.5534995919) x9) (or (<= (+ x9 0.4511011209) x8) (or (>= (- y8 0.4226127808) y9) (or (>= (- y9 0.4023114436) y8))))) 
(and (or (<= (+ x8 0.5534995919) x10) (or (<= (+ x10 0.1214431211) x8) (or (>= (- y8 0.4226127808) y10) (or (>= (- y10 0.2762609854) y8))))) 
(and (or (<= (+ x8 0.5534995919) x11) (or (<= (+ x11 0.5622384281) x8) (or (>= (- y8 0.4226127808) y11) (or (>= (- y11 0.1023775932) y8))))) 
(and (or (<= (+ x8 0.5534995919) x12) (or (<= (+ x12 0.6179029355) x8) (or (>= (- y8 0.4226127808) y12) (or (>= (- y12 0.0880952405) y8))))) 
(and (or (<= (+ x8 0.5534995919) x13) (or (<= (+ x13 0.9439929538) x8) (or (>= (- y8 0.4226127808) y13) (or (>= (- y13 0.0102455035) y8))))) 
(and (or (<= (+ x8 0.5534995919) x14) (or (<= (+ x14 0.8575855039) x8) (or (>= (- y8 0.4226127808) y14) (or (>= (- y14 0.0003321644) y8))))) 
(and (or (<= (+ x9 0.4511011209) x10) (or (<= (+ x10 0.1214431211) x9) (or (>= (- y9 0.4023114436) y10) (or (>= (- y10 0.2762609854) y9))))) 
(and (or (<= (+ x9 0.4511011209) x11) (or (<= (+ x11 0.5622384281) x9) (or (>= (- y9 0.4023114436) y11) (or (>= (- y11 0.1023775932) y9))))) 
(and (or (<= (+ x9 0.4511011209) x12) (or (<= (+ x12 0.6179029355) x9) (or (>= (- y9 0.4023114436) y12) (or (>= (- y12 0.0880952405) y9))))) 
(and (or (<= (+ x9 0.4511011209) x13) (or (<= (+ x13 0.9439929538) x9) (or (>= (- y9 0.4023114436) y13) (or (>= (- y13 0.0102455035) y9))))) 
(and (or (<= (+ x9 0.4511011209) x14) (or (<= (+ x14 0.8575855039) x9) (or (>= (- y9 0.4023114436) y14) (or (>= (- y14 0.0003321644) y9))))) 
(and (or (<= (+ x10 0.1214431211) x11) (or (<= (+ x11 0.5622384281) x10) (or (>= (- y10 0.2762609854) y11) (or (>= (- y11 0.1023775932) y10))))) 
(and (or (<= (+ x10 0.1214431211) x12) (or (<= (+ x12 0.6179029355) x10) (or (>= (- y10 0.2762609854) y12) (or (>= (- y12 0.0880952405) y10))))) 
(and (or (<= (+ x10 0.1214431211) x13) (or (<= (+ x13 0.9439929538) x10) (or (>= (- y10 0.2762609854) y13) (or (>= (- y13 0.0102455035) y10))))) 
(and (or (<= (+ x10 0.1214431211) x14) (or (<= (+ x14 0.8575855039) x10) (or (>= (- y10 0.2762609854) y14) (or (>= (- y14 0.0003321644) y10))))) 
(and (or (<= (+ x11 0.5622384281) x12) (or (<= (+ x12 0.6179029355) x11) (or (>= (- y11 0.1023775932) y12) (or (>= (- y12 0.0880952405) y11))))) 
(and (or (<= (+ x11 0.5622384281) x13) (or (<= (+ x13 0.9439929538) x11) (or (>= (- y11 0.1023775932) y13) (or (>= (- y13 0.0102455035) y11))))) 
(and (or (<= (+ x11 0.5622384281) x14) (or (<= (+ x14 0.8575855039) x11) (or (>= (- y11 0.1023775932) y14) (or (>= (- y14 0.0003321644) y11))))) 
(and (or (<= (+ x12 0.6179029355) x13) (or (<= (+ x13 0.9439929538) x12) (or (>= (- y12 0.0880952405) y13) (or (>= (- y13 0.0102455035) y12))))) 
(and (or (<= (+ x12 0.6179029355) x14) (or (<= (+ x14 0.8575855039) x12) (or (>= (- y12 0.0880952405) y14) (or (>= (- y14 0.0003321644) y12))))) 
(and (or (<= (+ x13 0.9439929538) x14) (or (<= (+ x14 0.8575855039) x13) (or (>= (- y13 0.0102455035) y14) (or (>= (- y14 0.0003321644) y13))))) )))))))))))))))))))))))))))))))))))))))))))))))))))))))))))))))))))))))))))))))))))))))))))))))))))))))))))))))))))))))))))))))))))))))))))))))))))))))))))))))))))))))))))))))))))))))))))))))))))))))))))))))))))))))
(minimize c)
(check-sat)
(get-objectives)
(exit)
